c description: Perfect Matching Principle on 
c generator: CNFgen (0.9.0)
c copyright: (C) 2012-2020 Massimo Lauria <massimo.lauria@uniroma1.it>
c url: https://massimolauria.net/cnfgen
c
p cnf 120 955
-1 -2 0
-1 -3 0
-1 -4 0
-2 -3 0
-2 -4 0
-3 -4 0
1 2 3 4 0
-5 -6 0
-5 -7 0
-5 -8 0
-5 -9 0
-5 -10 0
-5 -11 0
-5 -12 0
-5 -13 0
-5 -14 0
-6 -7 0
-6 -8 0
-6 -9 0
-6 -10 0
-6 -11 0
-6 -12 0
-6 -13 0
-6 -14 0
-7 -8 0
-7 -9 0
-7 -10 0
-7 -11 0
-7 -12 0
-7 -13 0
-7 -14 0
-8 -9 0
-8 -10 0
-8 -11 0
-8 -12 0
-8 -13 0
-8 -14 0
-9 -10 0
-9 -11 0
-9 -12 0
-9 -13 0
-9 -14 0
-10 -11 0
-10 -12 0
-10 -13 0
-10 -14 0
-11 -12 0
-11 -13 0
-11 -14 0
-12 -13 0
-12 -14 0
-13 -14 0
5 6 7 8 9 10 11 12 13 14 0
-15 -16 0
-15 -17 0
-15 -18 0
-15 -19 0
-15 -20 0
-15 -21 0
-15 -22 0
-15 -23 0
-16 -17 0
-16 -18 0
-16 -19 0
-16 -20 0
-16 -21 0
-16 -22 0
-16 -23 0
-17 -18 0
-17 -19 0
-17 -20 0
-17 -21 0
-17 -22 0
-17 -23 0
-18 -19 0
-18 -20 0
-18 -21 0
-18 -22 0
-18 -23 0
-19 -20 0
-19 -21 0
-19 -22 0
-19 -23 0
-20 -21 0
-20 -22 0
-20 -23 0
-21 -22 0
-21 -23 0
-22 -23 0
15 16 17 18 19 20 21 22 23 0
-5 -15 0
-5 -24 0
-5 -25 0
-5 -26 0
-15 -24 0
-15 -25 0
-15 -26 0
-24 -25 0
-24 -26 0
-25 -26 0
5 15 24 25 26 0
-24 -27 0
-24 -28 0
-24 -29 0
-24 -30 0
-27 -28 0
-27 -29 0
-27 -30 0
-28 -29 0
-28 -30 0
-29 -30 0
24 27 28 29 30 0
-6 -16 0
-6 -27 0
-6 -31 0
-6 -32 0
-6 -33 0
-6 -34 0
-16 -27 0
-16 -31 0
-16 -32 0
-16 -33 0
-16 -34 0
-27 -31 0
-27 -32 0
-27 -33 0
-27 -34 0
-31 -32 0
-31 -33 0
-31 -34 0
-32 -33 0
-32 -34 0
-33 -34 0
6 16 27 31 32 33 34 0
-31 -35 0
-31 -36 0
-35 -36 0
31 35 36 0
-1 -7 0
-1 -37 0
-1 -38 0
-1 -39 0
-1 -40 0
-1 -41 0
-1 -42 0
-1 -43 0
-1 -44 0
-7 -37 0
-7 -38 0
-7 -39 0
-7 -40 0
-7 -41 0
-7 -42 0
-7 -43 0
-7 -44 0
-37 -38 0
-37 -39 0
-37 -40 0
-37 -41 0
-37 -42 0
-37 -43 0
-37 -44 0
-38 -39 0
-38 -40 0
-38 -41 0
-38 -42 0
-38 -43 0
-38 -44 0
-39 -40 0
-39 -41 0
-39 -42 0
-39 -43 0
-39 -44 0
-40 -41 0
-40 -42 0
-40 -43 0
-40 -44 0
-41 -42 0
-41 -43 0
-41 -44 0
-42 -43 0
-42 -44 0
-43 -44 0
1 7 37 38 39 40 41 42 43 44 0
-32 -35 0
-32 -37 0
-32 -45 0
-32 -46 0
-32 -47 0
-32 -48 0
-32 -49 0
-35 -37 0
-35 -45 0
-35 -46 0
-35 -47 0
-35 -48 0
-35 -49 0
-37 -45 0
-37 -46 0
-37 -47 0
-37 -48 0
-37 -49 0
-45 -46 0
-45 -47 0
-45 -48 0
-45 -49 0
-46 -47 0
-46 -48 0
-46 -49 0
-47 -48 0
-47 -49 0
-48 -49 0
32 35 37 45 46 47 48 49 0
-8 -17 0
-8 -38 0
-8 -50 0
-8 -51 0
-8 -52 0
-8 -53 0
-8 -54 0
-17 -38 0
-17 -50 0
-17 -51 0
-17 -52 0
-17 -53 0
-17 -54 0
-38 -50 0
-38 -51 0
-38 -52 0
-38 -53 0
-38 -54 0
-50 -51 0
-50 -52 0
-50 -53 0
-50 -54 0
-51 -52 0
-51 -53 0
-51 -54 0
-52 -53 0
-52 -54 0
-53 -54 0
8 17 38 50 51 52 53 54 0
-2 -18 0
-2 -33 0
-2 -55 0
-2 -56 0
-2 -57 0
-2 -58 0
-2 -59 0
-2 -60 0
-2 -61 0
-18 -33 0
-18 -55 0
-18 -56 0
-18 -57 0
-18 -58 0
-18 -59 0
-18 -60 0
-18 -61 0
-33 -55 0
-33 -56 0
-33 -57 0
-33 -58 0
-33 -59 0
-33 -60 0
-33 -61 0
-55 -56 0
-55 -57 0
-55 -58 0
-55 -59 0
-55 -60 0
-55 -61 0
-56 -57 0
-56 -58 0
-56 -59 0
-56 -60 0
-56 -61 0
-57 -58 0
-57 -59 0
-57 -60 0
-57 -61 0
-58 -59 0
-58 -60 0
-58 -61 0
-59 -60 0
-59 -61 0
-60 -61 0
2 18 33 55 56 57 58 59 60 61 0
-34 -39 0
-34 -62 0
-34 -63 0
-34 -64 0
-34 -65 0
-34 -66 0
-34 -67 0
-34 -68 0
-39 -62 0
-39 -63 0
-39 -64 0
-39 -65 0
-39 -66 0
-39 -67 0
-39 -68 0
-62 -63 0
-62 -64 0
-62 -65 0
-62 -66 0
-62 -67 0
-62 -68 0
-63 -64 0
-63 -65 0
-63 -66 0
-63 -67 0
-63 -68 0
-64 -65 0
-64 -66 0
-64 -67 0
-64 -68 0
-65 -66 0
-65 -67 0
-65 -68 0
-66 -67 0
-66 -68 0
-67 -68 0
34 39 62 63 64 65 66 67 68 0
-45 -69 0
-45 -70 0
-45 -71 0
-45 -72 0
-45 -73 0
-45 -74 0
-45 -75 0
-45 -76 0
-69 -70 0
-69 -71 0
-69 -72 0
-69 -73 0
-69 -74 0
-69 -75 0
-69 -76 0
-70 -71 0
-70 -72 0
-70 -73 0
-70 -74 0
-70 -75 0
-70 -76 0
-71 -72 0
-71 -73 0
-71 -74 0
-71 -75 0
-71 -76 0
-72 -73 0
-72 -74 0
-72 -75 0
-72 -76 0
-73 -74 0
-73 -75 0
-73 -76 0
-74 -75 0
-74 -76 0
-75 -76 0
45 69 70 71 72 73 74 75 76 0
-9 -28 0
-9 -50 0
-9 -55 0
-9 -62 0
-9 -77 0
-9 -78 0
-28 -50 0
-28 -55 0
-28 -62 0
-28 -77 0
-28 -78 0
-50 -55 0
-50 -62 0
-50 -77 0
-50 -78 0
-55 -62 0
-55 -77 0
-55 -78 0
-62 -77 0
-62 -78 0
-77 -78 0
9 28 50 55 62 77 78 0
-46 -63 0
-46 -79 0
-46 -80 0
-46 -81 0
-46 -82 0
-63 -79 0
-63 -80 0
-63 -81 0
-63 -82 0
-79 -80 0
-79 -81 0
-79 -82 0
-80 -81 0
-80 -82 0
-81 -82 0
46 63 79 80 81 82 0
-29 -56 0
-29 -64 0
-29 -69 0
-29 -83 0
-29 -84 0
-29 -85 0
-29 -86 0
-56 -64 0
-56 -69 0
-56 -83 0
-56 -84 0
-56 -85 0
-56 -86 0
-64 -69 0
-64 -83 0
-64 -84 0
-64 -85 0
-64 -86 0
-69 -83 0
-69 -84 0
-69 -85 0
-69 -86 0
-83 -84 0
-83 -85 0
-83 -86 0
-84 -85 0
-84 -86 0
-85 -86 0
29 56 64 69 83 84 85 86 0
-10 -25 0
-10 -40 0
-10 -65 0
-10 -70 0
-10 -87 0
-10 -88 0
-10 -89 0
-10 -90 0
-25 -40 0
-25 -65 0
-25 -70 0
-25 -87 0
-25 -88 0
-25 -89 0
-25 -90 0
-40 -65 0
-40 -70 0
-40 -87 0
-40 -88 0
-40 -89 0
-40 -90 0
-65 -70 0
-65 -87 0
-65 -88 0
-65 -89 0
-65 -90 0
-70 -87 0
-70 -88 0
-70 -89 0
-70 -90 0
-87 -88 0
-87 -89 0
-87 -90 0
-88 -89 0
-88 -90 0
-89 -90 0
10 25 40 65 70 87 88 89 90 0
-19 -51 0
-19 -71 0
-19 -91 0
-19 -92 0
-19 -93 0
-51 -71 0
-51 -91 0
-51 -92 0
-51 -93 0
-71 -91 0
-71 -92 0
-71 -93 0
-91 -92 0
-91 -93 0
-92 -93 0
19 51 71 91 92 93 0
-20 -26 0
-20 -79 0
-20 -94 0
-20 -95 0
-20 -96 0
-20 -97 0
-20 -98 0
-26 -79 0
-26 -94 0
-26 -95 0
-26 -96 0
-26 -97 0
-26 -98 0
-79 -94 0
-79 -95 0
-79 -96 0
-79 -97 0
-79 -98 0
-94 -95 0
-94 -96 0
-94 -97 0
-94 -98 0
-95 -96 0
-95 -97 0
-95 -98 0
-96 -97 0
-96 -98 0
-97 -98 0
20 26 79 94 95 96 97 98 0
-11 -21 0
-11 -36 0
-11 -66 0
-11 -99 0
-11 -100 0
-11 -101 0
-11 -102 0
-21 -36 0
-21 -66 0
-21 -99 0
-21 -100 0
-21 -101 0
-21 -102 0
-36 -66 0
-36 -99 0
-36 -100 0
-36 -101 0
-36 -102 0
-66 -99 0
-66 -100 0
-66 -101 0
-66 -102 0
-99 -100 0
-99 -101 0
-99 -102 0
-100 -101 0
-100 -102 0
-101 -102 0
11 21 36 66 99 100 101 102 0
-12 -22 0
-12 -77 0
-12 -103 0
-12 -104 0
-12 -105 0
-22 -77 0
-22 -103 0
-22 -104 0
-22 -105 0
-77 -103 0
-77 -104 0
-77 -105 0
-103 -104 0
-103 -105 0
-104 -105 0
12 22 77 103 104 105 0
-13 -41 0
-13 -47 0
-13 -57 0
-13 -72 0
-13 -87 0
-13 -106 0
-13 -107 0
-41 -47 0
-41 -57 0
-41 -72 0
-41 -87 0
-41 -106 0
-41 -107 0
-47 -57 0
-47 -72 0
-47 -87 0
-47 -106 0
-47 -107 0
-57 -72 0
-57 -87 0
-57 -106 0
-57 -107 0
-72 -87 0
-72 -106 0
-72 -107 0
-87 -106 0
-87 -107 0
-106 -107 0
13 41 47 57 72 87 106 107 0
-48 -73 0
-48 -83 0
-48 -88 0
-48 -91 0
-48 -94 0
-48 -99 0
-48 -103 0
-48 -108 0
-48 -109 0
-48 -110 0
-48 -111 0
-73 -83 0
-73 -88 0
-73 -91 0
-73 -94 0
-73 -99 0
-73 -103 0
-73 -108 0
-73 -109 0
-73 -110 0
-73 -111 0
-83 -88 0
-83 -91 0
-83 -94 0
-83 -99 0
-83 -103 0
-83 -108 0
-83 -109 0
-83 -110 0
-83 -111 0
-88 -91 0
-88 -94 0
-88 -99 0
-88 -103 0
-88 -108 0
-88 -109 0
-88 -110 0
-88 -111 0
-91 -94 0
-91 -99 0
-91 -103 0
-91 -108 0
-91 -109 0
-91 -110 0
-91 -111 0
-94 -99 0
-94 -103 0
-94 -108 0
-94 -109 0
-94 -110 0
-94 -111 0
-99 -103 0
-99 -108 0
-99 -109 0
-99 -110 0
-99 -111 0
-103 -108 0
-103 -109 0
-103 -110 0
-103 -111 0
-108 -109 0
-108 -110 0
-108 -111 0
-109 -110 0
-109 -111 0
-110 -111 0
48 73 83 88 91 94 99 103 108 109 110 111 0
-52 -80 0
-52 -95 0
-52 -100 0
-52 -108 0
-52 -112 0
-52 -113 0
-52 -114 0
-80 -95 0
-80 -100 0
-80 -108 0
-80 -112 0
-80 -113 0
-80 -114 0
-95 -100 0
-95 -108 0
-95 -112 0
-95 -113 0
-95 -114 0
-100 -108 0
-100 -112 0
-100 -113 0
-100 -114 0
-108 -112 0
-108 -113 0
-108 -114 0
-112 -113 0
-112 -114 0
-113 -114 0
52 80 95 100 108 112 113 114 0
-23 -58 0
-23 -74 0
-23 -78 0
-23 -84 0
-23 -89 0
-23 -92 0
-23 -96 0
-23 -101 0
-23 -109 0
-23 -115 0
-23 -116 0
-58 -74 0
-58 -78 0
-58 -84 0
-58 -89 0
-58 -92 0
-58 -96 0
-58 -101 0
-58 -109 0
-58 -115 0
-58 -116 0
-74 -78 0
-74 -84 0
-74 -89 0
-74 -92 0
-74 -96 0
-74 -101 0
-74 -109 0
-74 -115 0
-74 -116 0
-78 -84 0
-78 -89 0
-78 -92 0
-78 -96 0
-78 -101 0
-78 -109 0
-78 -115 0
-78 -116 0
-84 -89 0
-84 -92 0
-84 -96 0
-84 -101 0
-84 -109 0
-84 -115 0
-84 -116 0
-89 -92 0
-89 -96 0
-89 -101 0
-89 -109 0
-89 -115 0
-89 -116 0
-92 -96 0
-92 -101 0
-92 -109 0
-92 -115 0
-92 -116 0
-96 -101 0
-96 -109 0
-96 -115 0
-96 -116 0
-101 -109 0
-101 -115 0
-101 -116 0
-109 -115 0
-109 -116 0
-115 -116 0
23 58 74 78 84 89 92 96 101 109 115 116 0
-59 -81 0
-59 -85 0
-59 -97 0
-59 -102 0
-59 -110 0
-59 -112 0
-59 -115 0
-81 -85 0
-81 -97 0
-81 -102 0
-81 -110 0
-81 -112 0
-81 -115 0
-85 -97 0
-85 -102 0
-85 -110 0
-85 -112 0
-85 -115 0
-97 -102 0
-97 -110 0
-97 -112 0
-97 -115 0
-102 -110 0
-102 -112 0
-102 -115 0
-110 -112 0
-110 -115 0
-112 -115 0
59 81 85 97 102 110 112 115 0
-42 -53 0
-42 -75 0
-42 -106 0
-42 -117 0
-42 -118 0
-53 -75 0
-53 -106 0
-53 -117 0
-53 -118 0
-75 -106 0
-75 -117 0
-75 -118 0
-106 -117 0
-106 -118 0
-117 -118 0
42 53 75 106 117 118 0
-14 -30 0
-14 -43 0
-14 -54 0
-14 -60 0
-14 -67 0
-14 -82 0
-14 -86 0
-14 -98 0
-14 -104 0
-14 -113 0
-14 -117 0
-14 -119 0
-30 -43 0
-30 -54 0
-30 -60 0
-30 -67 0
-30 -82 0
-30 -86 0
-30 -98 0
-30 -104 0
-30 -113 0
-30 -117 0
-30 -119 0
-43 -54 0
-43 -60 0
-43 -67 0
-43 -82 0
-43 -86 0
-43 -98 0
-43 -104 0
-43 -113 0
-43 -117 0
-43 -119 0
-54 -60 0
-54 -67 0
-54 -82 0
-54 -86 0
-54 -98 0
-54 -104 0
-54 -113 0
-54 -117 0
-54 -119 0
-60 -67 0
-60 -82 0
-60 -86 0
-60 -98 0
-60 -104 0
-60 -113 0
-60 -117 0
-60 -119 0
-67 -82 0
-67 -86 0
-67 -98 0
-67 -104 0
-67 -113 0
-67 -117 0
-67 -119 0
-82 -86 0
-82 -98 0
-82 -104 0
-82 -113 0
-82 -117 0
-82 -119 0
-86 -98 0
-86 -104 0
-86 -113 0
-86 -117 0
-86 -119 0
-98 -104 0
-98 -113 0
-98 -117 0
-98 -119 0
-104 -113 0
-104 -117 0
-104 -119 0
-113 -117 0
-113 -119 0
-117 -119 0
14 30 43 54 60 67 82 86 98 104 113 117 119 0
-3 -44 0
-3 -49 0
-3 -61 0
-3 -68 0
-3 -93 0
-3 -105 0
-3 -107 0
-3 -114 0
-3 -116 0
-3 -119 0
-3 -120 0
-44 -49 0
-44 -61 0
-44 -68 0
-44 -93 0
-44 -105 0
-44 -107 0
-44 -114 0
-44 -116 0
-44 -119 0
-44 -120 0
-49 -61 0
-49 -68 0
-49 -93 0
-49 -105 0
-49 -107 0
-49 -114 0
-49 -116 0
-49 -119 0
-49 -120 0
-61 -68 0
-61 -93 0
-61 -105 0
-61 -107 0
-61 -114 0
-61 -116 0
-61 -119 0
-61 -120 0
-68 -93 0
-68 -105 0
-68 -107 0
-68 -114 0
-68 -116 0
-68 -119 0
-68 -120 0
-93 -105 0
-93 -107 0
-93 -114 0
-93 -116 0
-93 -119 0
-93 -120 0
-105 -107 0
-105 -114 0
-105 -116 0
-105 -119 0
-105 -120 0
-107 -114 0
-107 -116 0
-107 -119 0
-107 -120 0
-114 -116 0
-114 -119 0
-114 -120 0
-116 -119 0
-116 -120 0
-119 -120 0
3 44 49 61 68 93 105 107 114 116 119 120 0
-4 -76 0
-4 -90 0
-4 -111 0
-4 -118 0
-4 -120 0
-76 -90 0
-76 -111 0
-76 -118 0
-76 -120 0
-90 -111 0
-90 -118 0
-90 -120 0
-111 -118 0
-111 -120 0
-118 -120 0
4 76 90 111 118 120 0